gen cost
0 2203
1 2196
2 2081
3 2081
4 2081
5 2081
6 2081
7 2081
8 2081
9 2043
10 1999
11 1999
12 1971
13 1971
14 1971
15 1971
16 1971
17 1971
18 1971
19 1955
20 1955
21 1955
22 1895
23 1893
24 1785
25 1785
26 1785
27 1785
28 1785
29 1785
30 1785
31 1785
32 1785
33 1747
34 1747
35 1747
36 1747
37 1747
38 1721
39 1721
40 1721
41 1721
42 1721
43 1721
44 1721
45 1721
46 1713
47 1713
48 1713
49 1713
time 0
